NAME : imp0105
COMMENT : Hamiltonian cycle problem (Erbacci) 
TYPE : HCP
DIMENSION : 105
EDGE_DATA_FORMAT : EDGE_LIST
EDGE_DATA_SECTION
     1	11
     1	40
		 1	2
		 1	10
		 2	3
     2	13
     2	14
     3	16
		 3	17
		 3	4
		 4	19
		 4	20
		 4	5
		 5	6
		 5	22
		 5	23
		 6	25
		 6	7
		 6	26
		 7	28
		 7	8
		 7	29
		 8	31
		 8	32
		 8	9
		 9	34
		 9	10
		 9	35
		 10	37
		 10	38
		 11	12
		 11	42
		 12	13
		 12	44
		 13	46
		 14	47
		 14	15
		 15	49
		 15	16
		 16	51
		 17	52
		 17	18
		 18	54
		 18	19
		 19	56
		 20	57
		 20	21
		 21	22
		 21	59
		 22	61
		 23	62
		 23	24
		 24	64
		 24	25
		 25	66
		 26	67
		 26	27
		 27	28
		 27	69
		 28	71
		 29	72
		 29	30
		 30	74
		 30	31
		 31	76
		 32	77
		 32	33
		 33	79
		 33	34
		 34	81
		 35	82
		 35	36
		 36	37
		 36	84
		 37	86
		 38	39
		 38	87
		 39	89
		 39	40
		 40	41
		 41	42
		 42	43
		 43	44
		 44	45
		 45	46
		 46	47
		 47	48
		 48	49
		 49	50
		 50	51
		 51	52
		 52	53
		 53	54
		 54	55
		 55	56
		 56	57
		 57	58
		 58	59
		 59	60
		 60	61
		 61	62
		 62	63
		 63	64
		 64	65
		 65	66
		 66	67
		 67	68
		 68	69
		 69	70
		 70	71
		 71	72
		 72	73
		 73	74
		 74	75
		 75	76
		 76	77
		 77	78
		 78	79
		 79	80
		 80	81
		 81	82
		 82	83
		 83	84
		 84	85
		 85	86
		 86	87
		 87	88
		 88	89
		 89	90
		 90	41
		 90	91
		 91	92
		 92	93
		 93	94
		 94	95
		 95	96
		 96	97
		 97	98
		 98	99
		 99	100
		 100	91
		 91	43
		 92	45
		 92	48
		 93	50
		 93	53
		 94	55
		 94	58
		 95	60
		 95	63
		 96	65
		 96	68
		 97	70
		 97	73
		 98	75
		 98	78
		 99	80
		 99	83
		 100	85
		 100	88
		 91	101
		 93	102
		 95	103
		 97	104
		 99	105
		 101	102
		 102	103
		 103	104
		 104	105
		 105	101
-1
EOF

